************************************************************************
file with basedata            : md147_.bas
initial value random generator: 1918135793
************************************************************************
projects                      :  1
jobs (incl. supersource/sink ):  16
horizon                       :  108
RESOURCES
  - renewable                 :  2   R
  - nonrenewable              :  2   N
  - doubly constrained        :  0   D
************************************************************************
PROJECT INFORMATION:
pronr.  #jobs rel.date duedate tardcost  MPM-Time
    1     14      0       16       12       16
************************************************************************
PRECEDENCE RELATIONS:
jobnr.    #modes  #successors   successors
   1        1          3           2   3   4
   2        3          2           8  15
   3        3          3           6   8   9
   4        3          2           5   7
   5        3          3           6  10  11
   6        3          2          12  14
   7        3          2          10  15
   8        3          2          11  14
   9        3          3          10  12  15
  10        3          2          13  14
  11        3          1          12
  12        3          1          13
  13        3          1          16
  14        3          1          16
  15        3          1          16
  16        1          0        
************************************************************************
REQUESTS/DURATIONS:
jobnr. mode duration  R 1  R 2  N 1  N 2
------------------------------------------------------------------------
  1      1     0       0    0    0    0
  2      1     1       0    4    0    4
         2     1       1    0    0    4
         3     2       0    4    4    0
  3      1     2       7    0    4    0
         2     7       0    9    3    0
         3     8       0    9    1    0
  4      1     1       0    9   10    0
         2     4       0    7    0    6
         3     6       0    5   10    0
  5      1     3       8    0    0   10
         2     3       0    7    0    8
         3     7       0    5    0    6
  6      1     6       0    7    7    0
         2     7       9    0    2    0
         3     7       8    0    5    0
  7      1     3       0    8    0    7
         2     4       2    0    1    0
         3    10       0    4    0    2
  8      1     2       0    5    2    0
         2     3       0    1    0    6
         3     7      10    0    0    6
  9      1     1       0    7    0    5
         2     4       0    4    0    3
         3     7       1    0    0    3
 10      1     5       0    5    0    6
         2     8       0    4    0    6
         3     9       0    3    2    0
 11      1     1       4    0    8    0
         2     8       4    0    3    0
         3    10       3    0    0    2
 12      1     4       0    8    0    5
         2     7       0    7    0    3
         3     7       0    7    7    0
 13      1     2       2    0    0    8
         2     9       1    0    0    6
         3    10       1    0    0    3
 14      1     1       0    9    0    7
         2     3       0    9    8    0
         3    10       0    8    5    0
 15      1     5       6    0    8    0
         2     7       6    0    7    0
         3     8       0    3    0    3
 16      1     0       0    0    0    0
************************************************************************
RESOURCEAVAILABILITIES:
  R 1  R 2  N 1  N 2
   17   20   47   55
************************************************************************
